(set-info :source |printed by MathSAT|)
(declare-fun hhv_ULTIMATE.start_L-1_0_Int () Int)
(declare-fun .x.93 () Int)
(declare-fun hbv_ULTIMATE.start_ULTIMATE.startENTRY_1_Int () Int)
(declare-fun .x.94 () Int)
(declare-fun hhv_ULTIMATE.start_L-1_2_Int () Int)
(declare-fun .x.95 () Int)
(declare-fun hbv_ULTIMATE.start_ULTIMATE.startENTRY_3_Array_Int_Int () (Array Int Int))
(declare-fun .x.96 () (Array Int Int))
(declare-fun hhv_ULTIMATE.start_L-1_4_Array_Int_Int () (Array Int Int))
(declare-fun .x.97 () (Array Int Int))
(declare-fun hhv_ULTIMATE.start_L-1_5_Array_Int_Array_Int_Int () (Array Int (Array Int Int)))
(declare-fun .x.98 () (Array Int (Array Int Int)))
(declare-fun hbv_ULTIMATE.start_ULTIMATE.startENTRY_6_Int () Int)
(declare-fun .x.99 () Int)
(declare-fun hhv_ULTIMATE.start_L-1_7_Int () Int)
(declare-fun .x.100 () Int)
(declare-fun hbv_ULTIMATE.start_ULTIMATE.startENTRY_8_Int () Int)
(declare-fun .x.101 () Int)
(declare-fun hhv_ULTIMATE.start_L-1_9_Int () Int)
(declare-fun .x.102 () Int)
(declare-fun hbv_ULTIMATE.start_ULTIMATE.startENTRY_10_Int () Int)
(declare-fun .x.103 () Int)
(declare-fun hhv_ULTIMATE.start_L-1_11_Int () Int)
(declare-fun .x.104 () Int)
(declare-fun hbv_ULTIMATE.start_ULTIMATE.startENTRY_12_Array_Int_Int () (Array Int Int))
(declare-fun .x.105 () (Array Int Int))
(declare-fun hhv_ULTIMATE.start_L-1_13_Array_Int_Int () (Array Int Int))
(declare-fun .x.106 () (Array Int Int))
(declare-fun hbv_ULTIMATE.start_ULTIMATE.startENTRY_14_Int () Int)
(declare-fun .x.107 () Int)
(declare-fun hhv_ULTIMATE.start_L-1_15_Int () Int)
(declare-fun .x.108 () Int)
(declare-fun hhv_ULTIMATE.start_L-1_16_Int () Int)
(declare-fun .x.109 () Int)
(declare-fun hhv_ULTIMATE.start_L-1_17_Int () Int)
(declare-fun .x.110 () Int)
(declare-fun hhv_ULTIMATE.start_L-1_18_Int () Int)
(declare-fun .x.111 () Int)
(declare-fun hhv_ULTIMATE.start_L-1_19_Int () Int)
(declare-fun .x.112 () Int)
(declare-fun hhv_ULTIMATE.start_L-1_20_Int () Int)
(declare-fun .x.113 () Int)
(declare-fun hhv_ULTIMATE.start_L-1_21_Int () Int)
(declare-fun .x.114 () Int)
(declare-fun hhv_ULTIMATE.start_L-1_22_Int () Int)
(declare-fun .x.115 () Int)
(declare-fun hhv_ULTIMATE.start_L-1_23_Int () Int)
(declare-fun .x.116 () Int)
(declare-fun hhv_ULTIMATE.start_L-1_24_Int () Int)
(declare-fun .x.117 () Int)
(declare-fun hhv_ULTIMATE.start_L-1_25_Int () Int)
(declare-fun .x.118 () Int)
(declare-fun hhv_ULTIMATE.start_L-1_26_Bool () Bool)
(declare-fun hhv_ULTIMATE.start_ULTIMATE.startEXIT_26_Bool () Bool)
(declare-fun .loc.3 () Bool)
(declare-fun .loc.5 () Bool)
(declare-fun .loc.4 () Bool)
(declare-fun .loc.6 () Bool)
(define-fun .def_8 () Int (! hhv_ULTIMATE.start_L-1_0_Int :next |.x.93|))
(define-fun .def_10 () Int (! hbv_ULTIMATE.start_ULTIMATE.startENTRY_1_Int :next |.x.94|))
(define-fun .def_12 () Int (! hhv_ULTIMATE.start_L-1_2_Int :next |.x.95|))
(define-fun .def_14 () (Array Int Int) (! hbv_ULTIMATE.start_ULTIMATE.startENTRY_3_Array_Int_Int :next |.x.96|))
(define-fun .def_16 () (Array Int Int) (! hhv_ULTIMATE.start_L-1_4_Array_Int_Int :next |.x.97|))
(define-fun .def_18 () (Array Int (Array Int Int)) (! hhv_ULTIMATE.start_L-1_5_Array_Int_Array_Int_Int :next |.x.98|))
(define-fun .def_20 () Int (! hbv_ULTIMATE.start_ULTIMATE.startENTRY_6_Int :next |.x.99|))
(define-fun .def_22 () Int (! hhv_ULTIMATE.start_L-1_7_Int :next |.x.100|))
(define-fun .def_24 () Int (! hbv_ULTIMATE.start_ULTIMATE.startENTRY_8_Int :next |.x.101|))
(define-fun .def_26 () Int (! hhv_ULTIMATE.start_L-1_9_Int :next |.x.102|))
(define-fun .def_28 () Int (! hbv_ULTIMATE.start_ULTIMATE.startENTRY_10_Int :next |.x.103|))
(define-fun .def_30 () Int (! hhv_ULTIMATE.start_L-1_11_Int :next |.x.104|))
(define-fun .def_32 () (Array Int Int) (! hbv_ULTIMATE.start_ULTIMATE.startENTRY_12_Array_Int_Int :next |.x.105|))
(define-fun .def_34 () (Array Int Int) (! hhv_ULTIMATE.start_L-1_13_Array_Int_Int :next |.x.106|))
(define-fun .def_36 () Int (! hbv_ULTIMATE.start_ULTIMATE.startENTRY_14_Int :next |.x.107|))
(define-fun .def_38 () Int (! hhv_ULTIMATE.start_L-1_15_Int :next |.x.108|))
(define-fun .def_40 () Int (! hhv_ULTIMATE.start_L-1_16_Int :next |.x.109|))
(define-fun .def_42 () Int (! hhv_ULTIMATE.start_L-1_17_Int :next |.x.110|))
(define-fun .def_44 () Int (! hhv_ULTIMATE.start_L-1_18_Int :next |.x.111|))
(define-fun .def_46 () Int (! hhv_ULTIMATE.start_L-1_19_Int :next |.x.112|))
(define-fun .def_48 () Int (! hhv_ULTIMATE.start_L-1_20_Int :next |.x.113|))
(define-fun .def_50 () Int (! hhv_ULTIMATE.start_L-1_21_Int :next |.x.114|))
(define-fun .def_52 () Int (! hhv_ULTIMATE.start_L-1_22_Int :next |.x.115|))
(define-fun .def_54 () Int (! hhv_ULTIMATE.start_L-1_23_Int :next |.x.116|))
(define-fun .def_56 () Int (! hhv_ULTIMATE.start_L-1_24_Int :next |.x.117|))
(define-fun .def_58 () Int (! hhv_ULTIMATE.start_L-1_25_Int :next |.x.118|))
(define-fun .def_60 () Bool (! hhv_ULTIMATE.start_L-1_26_Bool :next |hhv_ULTIMATE.start_ULTIMATE.startEXIT_26_Bool|))
(define-fun .def_62 () Bool (! .loc.3 :next |.loc.5|))
(define-fun .def_64 () Bool (! .loc.4 :next |.loc.6|))
(define-fun .def_205 () Bool (not .def_64))
(define-fun .def_102 () Bool (not .def_62))
(define-fun .def_223 () Bool (and .def_102 .def_205))
(define-fun .def_215 () Bool (= .def_32 .def_34))
(define-fun .def_214 () Bool (= .def_14 .def_16))
(define-fun .def_216 () Bool (and .def_214 .def_215))
(define-fun .def_213 () Bool (= .def_20 .def_22))
(define-fun .def_217 () Bool (and .def_213 .def_216))
(define-fun .def_212 () Bool (not .def_60))
(define-fun .def_218 () Bool (and .def_212 .def_217))
(define-fun .def_211 () Bool (= .def_24 .def_26))
(define-fun .def_219 () Bool (and .def_211 .def_218))
(define-fun .def_210 () Bool (= .def_28 .def_30))
(define-fun .def_220 () Bool (and .def_210 .def_219))
(define-fun .def_209 () Bool (= .def_36 .def_38))
(define-fun .def_221 () Bool (and .def_209 .def_220))
(define-fun .def_208 () Bool (= .def_10 .def_12))
(define-fun .def_222 () Bool (and .def_208 .def_221))
(define-fun .def_224 () Bool (! (and .def_222 .def_223) :init true))
(define-fun .def_203 () Bool (= .def_8 .x.93))
(define-fun .def_201 () Bool (= .def_12 .x.95))
(define-fun .def_199 () Bool (= .def_16 .x.97))
(define-fun .def_197 () Bool (= .def_18 .x.98))
(define-fun .def_195 () Bool (= .def_22 .x.100))
(define-fun .def_193 () Bool (= .def_26 .x.102))
(define-fun .def_191 () Bool (= .def_30 .x.104))
(define-fun .def_189 () Bool (= .def_38 .x.108))
(define-fun .def_188 () Bool (= .def_34 .x.106))
(define-fun .def_190 () Bool (and .def_188 .def_189))
(define-fun .def_192 () Bool (and .def_190 .def_191))
(define-fun .def_194 () Bool (and .def_192 .def_193))
(define-fun .def_196 () Bool (and .def_194 .def_195))
(define-fun .def_198 () Bool (and .def_196 .def_197))
(define-fun .def_200 () Bool (and .def_198 .def_199))
(define-fun .def_202 () Bool (and .def_200 .def_201))
(define-fun .def_204 () Bool (and .def_202 .def_203))
(define-fun .def_206 () Bool (and .def_204 .def_205))
(define-fun .def_183 () Bool (not .loc.5))
(define-fun .def_184 () Bool (and .loc.6 .def_183))
(define-fun .def_114 () Bool (= .x.113 .x.115))
(define-fun .def_177 () Bool (not .def_114))
(define-fun .def_113 () Bool (= .x.110 .x.116))
(define-fun .def_176 () Bool (not .def_113))
(define-fun .def_178 () Bool (or .def_176 .def_177))
(define-fun .def_179 () Bool (or .def_60 .def_178))
(define-fun .def_131 () Bool (= .x.115 .x.117))
(define-fun .def_129 () Bool (= .x.109 .x.116))
(define-fun .def_127 () Bool (= .x.110 .x.112))
(define-fun .def_125 () Bool (= .x.113 .x.118))
(define-fun .def_123 () Bool (= .x.103 .x.109))
(define-fun .def_121 () Bool (= .x.103 .x.112))
(define-fun .def_119 () Bool (= .x.99 .x.117))
(define-fun .def_118 () Bool (= .x.99 .x.118))
(define-fun .def_120 () Bool (and .def_118 .def_119))
(define-fun .def_122 () Bool (and .def_120 .def_121))
(define-fun .def_124 () Bool (and .def_122 .def_123))
(define-fun .def_126 () Bool (and .def_124 .def_125))
(define-fun .def_128 () Bool (and .def_126 .def_127))
(define-fun .def_130 () Bool (and .def_128 .def_129))
(define-fun .def_132 () Bool (and .def_130 .def_131))
(define-fun .def_174 () Bool (or .def_60 .def_132))
(define-fun .def_67 () Bool (= .def_44 .x.111))
(define-fun .def_172 () Bool (and hhv_ULTIMATE.start_ULTIMATE.startEXIT_26_Bool .def_67))
(define-fun .def_96 () (Array Int Int) (select .def_18 .x.99))
(define-fun .def_97 () Int (select .def_96 .x.103))
(define-fun .def_98 () Bool (= .def_97 0))
(define-fun .def_94 () Bool (= .x.103 0))
(define-fun .def_91 () Bool (<= .def_8 .x.99))
(define-fun .def_92 () Bool (not .def_91))
(define-fun .def_87 () (Array Int Int) (store .def_14 0 0))
(define-fun .def_88 () (Array Int Int) (store .def_87 .x.99 1))
(define-fun .def_89 () Bool (= .x.96 .def_88))
(define-fun .def_79 () (Array Int Int) (store .def_32 .x.99 4))
(define-fun .def_80 () Bool (= .x.105 .def_79))
(define-fun .def_77 () Bool (= .x.101 0))
(define-fun .def_81 () Bool (and .def_77 .def_80))
(define-fun .def_76 () Bool (= .x.107 0))
(define-fun .def_82 () Bool (and .def_76 .def_81))
(define-fun .def_75 () Bool (= .x.94 0))
(define-fun .def_83 () Bool (and .def_75 .def_82))
(define-fun .def_71 () Bool (= .x.99 0))
(define-fun .def_74 () Bool (not .def_71))
(define-fun .def_84 () Bool (and .def_74 .def_83))
(define-fun .def_70 () Int (select .def_14 .x.99))
(define-fun .def_72 () Int (ite .def_71 0 .def_70))
(define-fun .def_73 () Bool (= .def_72 0))
(define-fun .def_85 () Bool (and .def_73 .def_84))
(define-fun .def_90 () Bool (and .def_85 .def_89))
(define-fun .def_93 () Bool (and .def_90 .def_92))
(define-fun .def_95 () Bool (and .def_93 .def_94))
(define-fun .def_99 () Bool (and .def_95 .def_98))
(define-fun .def_100 () Bool (or .def_60 .def_99))
(define-fun .def_173 () Bool (and .def_100 .def_172))
(define-fun .def_175 () Bool (and .def_173 .def_174))
(define-fun .def_180 () Bool (and .def_175 .def_179))
(define-fun .def_181 () Bool (and .def_102 .def_180))
(define-fun .def_169 () Bool (= .x.114 0))
(define-fun .def_170 () Bool (or .def_60 .def_169))
(define-fun .def_167 () Bool (= .def_10 .x.94))
(define-fun .def_165 () Bool (= .def_14 .x.96))
(define-fun .def_163 () Bool (= .def_20 .x.99))
(define-fun .def_161 () Bool (= .def_24 .x.101))
(define-fun .def_159 () Bool (= .def_28 .x.103))
(define-fun .def_157 () Bool (= .def_32 .x.105))
(define-fun .def_155 () Bool (= .def_36 .x.107))
(define-fun .def_153 () Bool (= .def_40 .x.109))
(define-fun .def_151 () Bool (= .def_42 .x.110))
(define-fun .def_149 () Bool (= .def_46 .x.112))
(define-fun .def_147 () Bool (= .def_48 .x.113))
(define-fun .def_145 () Bool (= .def_52 .x.115))
(define-fun .def_143 () Bool (= .def_54 .x.116))
(define-fun .def_141 () Bool (= .def_56 .x.117))
(define-fun .def_139 () Bool (= .def_58 .x.118))
(define-fun .def_135 () Bool (= .x.111 .x.114))
(define-fun .def_136 () Bool (or hhv_ULTIMATE.start_ULTIMATE.startEXIT_26_Bool .def_135))
(define-fun .def_137 () Bool (and .def_62 .def_136))
(define-fun .def_110 () Bool (= .def_60 hhv_ULTIMATE.start_ULTIMATE.startEXIT_26_Bool))
(define-fun .def_138 () Bool (and .def_110 .def_137))
(define-fun .def_140 () Bool (and .def_138 .def_139))
(define-fun .def_142 () Bool (and .def_140 .def_141))
(define-fun .def_144 () Bool (and .def_142 .def_143))
(define-fun .def_146 () Bool (and .def_144 .def_145))
(define-fun .def_148 () Bool (and .def_146 .def_147))
(define-fun .def_150 () Bool (and .def_148 .def_149))
(define-fun .def_152 () Bool (and .def_150 .def_151))
(define-fun .def_154 () Bool (and .def_152 .def_153))
(define-fun .def_156 () Bool (and .def_154 .def_155))
(define-fun .def_158 () Bool (and .def_156 .def_157))
(define-fun .def_160 () Bool (and .def_158 .def_159))
(define-fun .def_162 () Bool (and .def_160 .def_161))
(define-fun .def_164 () Bool (and .def_162 .def_163))
(define-fun .def_166 () Bool (and .def_164 .def_165))
(define-fun .def_168 () Bool (and .def_166 .def_167))
(define-fun .def_171 () Bool (and .def_168 .def_170))
(define-fun .def_182 () Bool (or .def_171 .def_181))
(define-fun .def_185 () Bool (and .def_182 .def_184))
(define-fun .def_133 () Bool (or hhv_ULTIMATE.start_ULTIMATE.startEXIT_26_Bool .def_132))
(define-fun .def_115 () Bool (and .def_113 .def_114))
(define-fun .def_116 () Bool (or hhv_ULTIMATE.start_ULTIMATE.startEXIT_26_Bool .def_115))
(define-fun .def_107 () Bool (and .def_67 .def_100))
(define-fun .def_108 () Bool (and .def_102 .def_107))
(define-fun .def_109 () Bool (and .loc.5 .def_108))
(define-fun .def_111 () Bool (and .def_109 .def_110))
(define-fun .def_105 () Bool (not .loc.6))
(define-fun .def_112 () Bool (and .def_105 .def_111))
(define-fun .def_117 () Bool (and .def_112 .def_116))
(define-fun .def_134 () Bool (and .def_117 .def_133))
(define-fun .def_186 () Bool (or .def_134 .def_185))
(define-fun .def_66 () Bool (and .def_60 hhv_ULTIMATE.start_ULTIMATE.startEXIT_26_Bool))
(define-fun .def_68 () Bool (and .def_66 .def_67))
(define-fun .def_101 () Bool (and .def_68 .def_100))
(define-fun .def_103 () Bool (and .def_101 .def_102))
(define-fun .def_104 () Bool (and .loc.5 .def_103))
(define-fun .def_106 () Bool (and .def_104 .def_105))
(define-fun .def_187 () Bool (or .def_106 .def_186))
(define-fun .def_207 () Bool (! (and .def_187 .def_206) :trans true))
(define-fun .def_225 () Bool (and .def_64 .def_102))
(define-fun .def_226 () Bool (and .def_60 .def_225))
(define-fun .def_227 () Bool (! (not .def_226) :invar-property 0))
(assert true)
